c A SAT instance generated from a 3-CNF formula that had 11 clauses and 6 variables
p cnf 6 11
3 2 4 0
-4 -5 -1 0
1 3 -4 0
-5 3 -6 0
2 -4 1 0
-3 -5 -2 0
3 -2 1 0
-2 1 -4 0
-1 3 4 0
-2 3 1 0
-2 3 -1 0
